# Solution for model cur_assignment
# Objective value = 9.4388652173095045e+02
Assign[0,0] 1
Assign[1,0] 1
Assign[2,0] 1
Assign[3,0] 1
Assign[4,0] 1
Assign[5,0] 1
Assign[6,0] 1
Assign[7,0] 1
Assign[8,0] 1
Assign[9,0] 1
Assign[10,0] 1
Assign[11,0] 1
Assign[12,0] 1
Assign[13,0] 1
Assign[14,0] 1
Assign[15,0] 1
Assign[16,0] 1
Assign[17,0] 1
Assign[18,0] 1
Assign[19,0] 1
Assign[20,0] 1
Assign[21,0] 1
Assign[22,0] 1
Assign[23,0] 1
Assign[24,0] 1
Assign[25,0] 1
Assign[26,0] 1
Assign[27,0] 1
Assign[28,0] 1
Assign[29,0] 1
Assign[30,0] 1
Assign[31,0] 1
Assign[32,0] 1
Assign[33,0] 1
Assign[34,0] 1
Assign[35,0] 1
Assign[36,0] 1
Assign[37,0] 1
Assign[38,0] 1
Assign[39,0] 1
Assign[40,0] 1
Assign[41,0] 1
Assign[42,0] 1
Assign[43,0] 1
Assign[44,0] 1
Assign[45,0] 1
Assign[46,0] 1
Assign[47,0] 1
Assign[48,0] 1
Assign[49,0] 1
Assign[50,0] 1
Assign[51,0] 1
Assign[52,0] 1
Assign[53,0] 1
Assign[54,0] 1
Assign[55,0] 1
Assign[56,0] 1
Assign[57,0] 1
Assign[58,0] 1
Assign[59,0] 1
Assign[60,0] 1
Assign[61,0] 1
Assign[62,0] 1
Assign[63,0] 1
Assign[64,0] 1
Assign[65,0] 1
Assign[66,0] 1
Assign[67,0] 1
Assign[68,0] 1
Assign[69,0] 1
Assign[70,0] 1
Assign[71,0] 1
Assign[72,0] 1
Assign[73,0] 1
Assign[74,0] 1
Assign[75,0] 1
Assign[76,0] 1
Assign[77,0] 1
Assign[78,0] 1
Assign[79,0] 1
Assign[80,0] 1
Assign[81,0] 1
Assign[82,0] 1
Assign[83,0] 1
Assign[84,0] 1
Assign[85,0] 1
Assign[86,0] 1
Assign[87,0] 1
Assign[88,0] 1
Assign[89,0] 1
Assign[90,0] 1
Assign[91,0] 1
Assign[92,0] 1
Assign[93,0] 1
Assign[94,0] 1
Assign[95,0] 1
Assign[96,0] 1
Assign[97,0] 1
Assign[98,0] 1
Assign[99,0] 1
Assign[100,0] 1
Assign[101,0] 1
Assign[102,0] 1
Assign[103,0] 1
Assign[104,0] 1
Assign[105,0] 1
Assign[106,0] 1
Assign[107,0] 1
Assign[108,0] 1
Assign[109,0] 1
Assign[110,0] 1
Assign[111,0] 1
Assign[112,0] 1
Assign[113,0] 1
Assign[114,0] 1
Assign[115,0] 1
Assign[116,0] 1
Assign[117,0] 1
Assign[118,0] 1
Assign[119,0] 1
Assign[120,0] 1
Assign[121,0] 1
Assign[122,0] 1
Assign[123,0] 1
Assign[124,0] 1
Assign[125,0] 1
Assign[126,0] 1
Assign[127,0] 1
Assign[128,0] 1
Assign[129,0] 1
Assign[130,0] 1
Assign[131,0] 1
Assign[132,0] 1
Assign[133,0] 1
Assign[134,0] 1
Assign[135,0] 1
Assign[136,0] 1
Assign[137,0] 1
Assign[138,0] 1
Assign[139,0] 1
Assign[140,0] 1
Assign[141,0] 1
Assign[142,0] 1
Assign[143,0] 1
Assign[144,0] 1
